Please solve the following SAT Problem encoded in DIMACS format, only return a single solution assignment without explanations, if there is any: 
p cnf 10 60
-1 -5 2 0
-4 8 -3 0
-2 -8 7 0
-4 -3 2 0
10 -5 -9 0
3 -8 -9 0
-2 10 9 0
10 -8 -9 0
-8 -5 -3 0
6 -9 10 0
-9 -6 -3 0
-8 2 -7 0
-1 -3 9 0
10 -1 -2 0
1 -6 2 0
2 -9 6 0
-9 10 2 0
-5 -8 7 0
-6 7 10 0
-1 -3 -5 0
-8 9 7 0
-1 -8 7 0
1 2 7 0
7 -6 1 0
-5 -4 -3 0
10 7 -4 0
-1 2 -6 0
-1 2 -5 0
2 -8 7 0
-4 -8 -6 0
-10 -6 -9 0
-1 -8 -3 0
-8 10 -5 0
-4 -1 -7 0
1 -4 -9 0
7 -5 -9 0
-5 -1 7 0
-3 -9 -1 0
-6 5 10 0
-1 -9 2 0
-6 -9 -4 0
-7 -4 2 0
7 6 -8 0
-3 9 -8 0
-8 10 -4 0
-8 -3 -2 0
-3 -6 -9 0
-6 -9 7 0
-8 -10 -9 0
-8 -5 -6 0
-2 -3 -1 0
-1 5 7 0
-8 -4 5 0
-3 -5 10 0
-3 -8 10 0
7 -4 10 0
10 -1 -5 0
-8 -1 9 0
2 -8 -5 0
-6 2 -8 0

